#SOLVERNAME# PAJ_CPLEX_MOSEK_msd
#SOLVER# Pajarito.PajaritoSolver(3, 3700.0, 1.0e-5, true, CPLEX.CplexSolver(Any[(:CPX_PARAM_THREADS, 1), (:CPX_PARAM_SCRIND, 1), (:CPX_PARAM_EPINT, 1.0e-8), (:CPX_PARAM_EPRHS, 1.0e-7), (:CPX_PARAM_EPGAP, 1.0e-5)]), Pajarito.UnsetSolver(), 0, false, true, Mosek.MosekSolver(Any[(:LOG, 0), (:NUM_THREADS, 1)]), true, true, false, false, true, false, false, true, false, true, true, true, true, false, true, 2.0, true, false, false, true, 1.0e-12, 1.0e-6, false, "")
#INSTANCE# port_16_12_4_a_1.cbf.gz
#TIMELIMIT# 3700.0

Problem dimensions:
       variables |     121
     constraints |     233
   nonzeros in A |     716

Cones summary:
Cone             | Count   | Min dim.  | Max dim. 
    Second order |       1 |        17 |        17
   Primal expon. |      24 |         3 |         3
   Pos. semidef. |       1 |       9^2 |       9^2

Variable types:
      continuous |      89
         integer |      32

Transforming data...               0.00s

Creating conic subproblem...       0.16s

Building MIP model...              0.00s

Solving conic relaxation...        0.02s
WARNING: Conic solver failure on initial relaxation: returned status Stall

User cuts applied:  11

Root node processing (before b&c):
  Real time             =    0.36 sec. (0.54 ticks)
Sequential b&c:
  Real time             =    0.00 sec. (0.00 ticks)
                          ------------
Total (root+branch&cut) =    0.36 sec. (0.54 ticks)
CPLEX Error  1217: No solution exists.
Warning: Control callbacks may disable some MIP features.
Tried aggregator 2 times.
MIP Presolve eliminated 231 rows and 0 columns.
MIP Presolve modified 20 coefficients.
Aggregator did 13 substitutions.
Reduced MIP has 122 rows, 124 columns, and 834 nonzeros.
Reduced MIP has 32 binaries, 0 generals, 0 SOSs, and 0 indicators.
Presolve time = 0.00 sec. (0.45 ticks)
Probing time = 0.00 sec. (0.19 ticks)
Cover probing fixed 0 vars, tightened 68 bounds.
MIP emphasis: balance optimality and feasibility.
MIP search method: traditional branch-and-cut.
Parallel mode: none, using 1 thread.
Root relaxation solution time = 0.00 sec. (0.28 ticks)

        Nodes                                         Cuts/
   Node  Left     Objective  IInf  Best Integer    Best Bound    ItCnt     Gap

      0     0       -0.0964     2                     -0.2017       30         
*     0+    0                           -0.0351       -0.0964           174.76%
      0     0       -0.0937     5       -0.0351       Cuts: 4       34  166.92%
*     0+    0                           -0.0366       -0.0937           156.01%
*     0+    0                           -0.0386       -0.0936           142.44%
*     0+    0                           -0.0388       -0.0936           141.20%
      0     2       -0.0739    14       -0.0388       -0.0739       34   90.46%
Elapsed time = 0.17 sec. (25.51 ticks, tree = 0.01 MB, solutions = 4)
*    10+   10                           -0.0391       -0.0739            89.14%
*    13    13      integral     0       -0.0397       -0.0739      201   86.35%
*    25    14      integral     0       -0.0402       -0.0739      588   83.77%
*    30    14      integral     0       -0.0403       -0.0739      655   83.32%
*   319   213      integral     0       -0.0405       -0.0638     4984   57.40%
*   320+  197                           -0.0416       -0.0638            53.18%
    611   408       -0.0451    10       -0.0416       -0.0518     8550   24.48%
    989   661       -0.0431     9       -0.0416       -0.0513    12560   23.19%
   1365   892       -0.0471    11       -0.0416       -0.0505    16900   21.40%
   1760  1125        cutoff             -0.0416       -0.0503    21318   20.94%
   2141  1334       -0.0431     8       -0.0416       -0.0500    25902   20.08%
   2547  1592       -0.0487    15       -0.0416       -0.0498    30504   19.70%
   2936  1826       -0.0419     5       -0.0416       -0.0497    34857   19.35%
   4480  2703       -0.0453    10       -0.0416       -0.0490    52652   17.81%
Elapsed time = 3.55 sec. (2927.98 ticks, tree = 0.97 MB, solutions = 10)
   6062  3622        cutoff             -0.0416       -0.0486    70209   16.79%
   7723  4533       -0.0451    10       -0.0416       -0.0482    87576   15.76%
   9447  5432       -0.0424     9       -0.0416       -0.0478   106399   14.91%
  11130  6297        cutoff             -0.0416       -0.0475   125085   14.20%
* 12211  6711      integral     0       -0.0417       -0.0474   136407   13.60%
  13808  7490       -0.0422     5       -0.0417       -0.0471   154579   12.99%
  15471  8269       -0.0422     6       -0.0417       -0.0469   172343   12.52%
  17126  9020       -0.0449    11       -0.0417       -0.0467   189762   12.06%
  18704  9729       -0.0444    11       -0.0417       -0.0465   207750   11.56%
  20300 10386       -0.0435     9       -0.0417       -0.0463   225524   11.07%
Elapsed time = 13.40 sec. (12118.73 ticks, tree = 3.20 MB, solutions = 11)
  21902 10984       -0.0433    11       -0.0417       -0.0461   243051   10.64%
  23514 11611       -0.0417     7       -0.0417       -0.0459   260317   10.20%
* 23633 11568      integral     0       -0.0417       -0.0459   261626   10.05%
  25096 12107       -0.0417     7       -0.0417       -0.0458   277198    9.70%
  26665 12653       -0.0428    10       -0.0417       -0.0456   294849    9.34%
  28160 13136       -0.0427    10       -0.0417       -0.0455   312640    8.98%
  29660 13597       -0.0425     6       -0.0417       -0.0453   330624    8.58%
  31187 14104       -0.0425     7       -0.0417       -0.0451   347660    8.17%
  32704 14522       -0.0433    10       -0.0417       -0.0450   365035    7.80%
  34255 14944       -0.0422    14       -0.0417       -0.0448   382166    7.40%
  35804 15319       -0.0428     9       -0.0417       -0.0447   399117    7.05%
Elapsed time = 23.60 sec. (21658.94 ticks, tree = 4.36 MB, solutions = 12)
  37350 15747        cutoff             -0.0417       -0.0446   415900    6.79%
  38933 16135       -0.0430     7       -0.0417       -0.0444   432103    6.50%
  40490 16470       -0.0417     8       -0.0417       -0.0443   448326    6.23%
  42054 16684       -0.0422    15       -0.0417       -0.0442   464584    5.96%
  43620 16870       -0.0435    11       -0.0417       -0.0441   480664    5.71%
  45213 17061       -0.0432     5       -0.0417       -0.0440   496114    5.48%
  46822 17240        cutoff             -0.0417       -0.0439   510944    5.25%
  48387 17237       -0.0427     9       -0.0417       -0.0438   526106    5.01%
* 48890 12970      integral     0       -0.0422       -0.0438   531821    3.75%
* 48990+12934                           -0.0422       -0.0438             3.72%
  50333 12603        cutoff             -0.0422       -0.0436   546993    3.44%
Elapsed time = 33.07 sec. (30580.31 ticks, tree = 4.38 MB, solutions = 13)
  51829 12098       -0.0423    12       -0.0422       -0.0435   561904    3.14%
  53335 11532        cutoff             -0.0422       -0.0434   576634    2.85%
  54911 10720       -0.0432    15       -0.0422       -0.0433   590640    2.52%
  56540  9863       -0.0428    13       -0.0422       -0.0431   604907    2.22%
  58222  8830        cutoff             -0.0422       -0.0430   618041    1.92%
  60016  7605        cutoff             -0.0422       -0.0429   629940    1.58%
  61880  6167        cutoff             -0.0422       -0.0427   641012    1.24%
  63823  4555        cutoff             -0.0422       -0.0426   650789    0.90%
  65848  2782        cutoff             -0.0422       -0.0424   658986    0.55%
  67948   878        cutoff             -0.0422       -0.0423   665806    0.17%
Elapsed time = 43.02 sec. (40120.70 ticks, tree = 1.54 MB, solutions = 13)

Starting MIP-solver-driven algorithm
WARNING: Pajarito failed to converge to the desired relative gap; try turning off the MIP solver's presolve functionality

MIP-solver-driven algorithm summary:
 - Status               =       FailedOA
 - Best feasible        =           +Inf
 - Best bound           =  -4.219451e-02
 - Relative opt. gap    =            NaN
 - Total time (s)       =       4.39e+01

Timers (s):
 - Setup                =   1.60e-01
 -- Transform data      =   2.00e-04
 -- Create conic data   =   1.59e-01
 -- Create MIP data     =   1.04e-03
 - Algorithm            =   4.38e+01
 -- Solve relaxation    =   2.39e-02
 -- Get relaxation cuts =   0.00e+00
 -- MIP solver driving  =   4.34e+01
 -- Solve subproblems   =   4.80e-01
 -- Get subproblem cuts =   3.66e-02
 -- Get separation cuts =   2.95e-03

Counters:
 - Lazy callbacks       =    69
 -- Integer repeats     =    37
 -- Conic subproblems   =    32
 --- Infeasible         =     0
 --- Optimal            =     0
 --- Suboptimal         =     0
 --- UserLimit          =     0
 --- ConicFailure       =     0
 --- Other status       =    32
 -- Feasible solutions  =     0
 --- From subproblems   =     0
 --- In lazy callback   =     0
 - Heuristic callbacks  = 42339
 -- Solutions passed    =     0

Solution returned by MIP solver

Rounds of full separation/subproblem cuts, and count of cuts added:
Cone             | Subp.  | Sep.   | Total  | Relax. | Viol. 
    Second order |     69 |      0 |    368 |      0 |    368
   Primal expon. |   1656 |      0 |    555 |      0 |    555
   Pos. semidef. |     69 |      0 |     12 |      0 |     12

0 numerically unstable disaggregated SOC cuts


Mixed integer rounding cuts applied:  1
User cuts applied:  616

Root node processing (before b&c):
  Real time             =    0.17 sec. (25.51 ticks)
Sequential b&c:
  Real time             =   43.22 sec. (40494.17 ticks)
                          ------------
Total (root+branch&cut) =   43.40 sec. (40519.68 ticks)
#STATUS# FailedOA
#OBJVAL# Inf
#OBJBOUND# -0.04219451475027242
#NODECOUNT# 68824
#TIMESOLVER# 43.91566205024719
#TIMEALL# 43.916162967681885
#SOLUTION# [NaN,NaN,NaN,NaN,NaN,NaN,NaN,NaN,NaN,NaN,NaN,NaN,NaN,NaN,NaN,NaN,NaN,NaN,NaN,NaN,NaN,NaN,NaN,NaN,NaN,NaN,NaN,NaN,NaN,NaN,NaN,NaN,NaN,NaN,NaN,NaN,NaN,NaN,NaN,NaN,NaN,NaN,NaN,NaN,NaN,NaN,NaN,NaN,NaN,NaN,NaN,NaN,NaN,NaN,NaN,NaN,NaN,NaN,NaN,NaN,NaN,NaN,NaN,NaN,NaN,NaN,NaN,NaN,NaN,NaN,NaN,NaN,NaN,NaN,NaN,NaN,NaN,NaN,NaN,NaN,NaN,NaN,NaN,NaN,NaN,NaN,NaN,NaN,NaN,NaN,NaN,NaN,NaN,NaN,NaN,NaN,NaN,NaN,NaN,NaN,NaN,NaN,NaN,NaN,NaN,NaN,NaN,NaN,NaN,NaN,NaN,NaN,NaN,NaN,NaN,NaN,NaN,NaN,NaN,NaN,NaN]
